SDVRP instances/custom_instances/p01_1_split0.vrp
NAME:p01_1_split
BEST_KNOWN: 0
COMMENT: 0
DIMENSION: 203
CAPACITY: 160
EDGE_WEIGHT_FORMAT: FUNCTION
EDGE_WEIGHT_TYPE: EXACT_2D
NODE_COORD_SECTION
1 0.00000 0.00000
2 -6 -23
3 -6 -23
4 -6 -23
5 -6 -23
6 38 38
7 38 38
8 38 38
9 38 38
10 38 38
11 -1 33
12 -1 33
13 -1 33
14 -1 33
15 -1 33
16 -14 -25
17 -14 -25
18 -14 -25
19 43 45
20 43 45
21 43 45
22 43 45
23 31 -31
24 31 -31
25 31 -31
26 26 23
27 26 23
28 26 23
29 -15 -27
30 -15 -27
31 -15 -27
32 -15 -27
33 4 -46
34 4 -46
35 4 -46
36 4 -46
37 4 -46
38 18 -17
39 18 -17
40 18 -17
41 18 -17
42 18 -17
43 1 -22
44 1 -22
45 1 -22
46 -1 -17
47 -1 -17
48 -1 -17
49 -1 -17
50 -1 -17
51 44 -45
52 44 -45
53 44 -45
54 44 -45
55 44 -45
56 44 -45
57 14 32
58 14 32
59 14 32
60 14 32
61 14 32
62 -47 39
63 -47 39
64 -47 39
65 -1 -6
66 -1 -6
67 -1 -6
68 21 43
69 21 43
70 21 43
71 21 43
72 21 43
73 21 43
74 -9 28
75 -9 28
76 -9 28
77 37 -31
78 37 -31
79 37 -31
80 37 -31
81 24 -27
82 24 -27
83 38 9
84 38 9
85 38 9
86 19 31
87 19 31
88 19 31
89 19 31
90 19 31
91 19 31
92 19 31
93 -42 -14
94 -42 -14
95 -42 -14
96 -42 -14
97 -42 -14
98 -5 49
99 -5 49
100 -5 49
101 2 18
102 2 18
103 2 18
104 2 18
105 2 18
106 -22 41
107 -22 41
108 -22 41
109 -46 12
110 -46 12
111 -46 12
112 -46 12
113 -46 12
114 -41 -26
115 -41 -26
116 -41 -26
117 -41 -26
118 -43 -9
119 -43 -9
120 -43 -9
121 -43 -9
122 -24 43
123 -24 43
124 -24 43
125 -37 8
126 -37 8
127 -37 8
128 -37 8
129 39 -17
130 39 -17
131 39 -17
132 -28 -49
133 -28 -49
134 -28 -49
135 -28 -49
136 -28 -49
137 -28 -49
138 -10 34
139 -10 34
140 -10 34
141 -10 34
142 -10 34
143 24 46
144 24 46
145 24 46
146 17 19
147 17 19
148 17 19
149 17 19
150 -11 47
151 -11 47
152 -11 47
153 -11 47
154 50 45
155 50 45
156 50 45
157 50 45
158 50 45
159 45 47
160 45 47
161 45 47
162 45 47
163 -25 -29
164 -47 29
165 -47 29
166 -47 29
167 -47 29
168 2 -36
169 2 -36
170 2 -36
171 2 -36
172 36 -25
173 36 -25
174 36 -25
175 36 -25
176 36 -25
177 6 11
178 6 11
179 6 11
180 6 11
181 6 11
182 6 11
183 -50 -47
184 -50 -47
185 -50 -47
186 -50 -47
187 27 5
188 27 5
189 27 5
190 27 5
191 -49 -37
192 -49 -37
193 -49 -37
194 -49 -37
195 -49 -37
196 22 19
197 22 19
198 22 19
199 -44 0
200 -44 0
201 49 -3
202 49 -3
203 49 -3
DEMAND_SECTION
1 0
2 32
3 32
4 8
5 1
6 32
7 8
8 2
9 2
10 2
11 32
12 8
13 2
14 2
15 1
16 32
17 2
18 2
19 32
20 32
21 2
22 1
23 16
24 2
25 2
26 32
27 16
28 2
29 32
30 8
31 2
32 2
33 32
34 32
35 2
36 2
37 1
38 32
39 8
40 2
41 2
42 2
43 16
44 8
45 1
46 32
47 8
48 2
49 2
50 2
51 32
52 32
53 8
54 2
55 2
56 1
57 32
58 32
59 2
60 2
61 2
62 32
63 2
64 1
65 32
66 8
67 1
68 32
69 16
70 8
71 2
72 2
73 2
74 16
75 8
76 1
77 32
78 32
79 2
80 2
81 32
82 2
83 32
84 32
85 16
86 32
87 32
88 8
89 2
90 2
91 2
92 1
93 32
94 2
95 2
96 2
97 1
98 16
99 2
100 2
101 32
102 16
103 2
104 2
105 1
106 32
107 32
108 8
109 32
110 32
111 8
112 2
113 1
114 32
115 32
116 2
117 1
118 32
119 8
120 2
121 2
122 32
123 8
124 1
125 32
126 16
127 2
128 1
129 32
130 16
131 8
132 32
133 16
134 2
135 2
136 2
137 1
138 32
139 8
140 2
141 2
142 1
143 32
144 16
145 1
146 32
147 32
148 2
149 1
150 16
151 2
152 2
153 2
154 16
155 8
156 2
157 2
158 1
159 32
160 16
161 8
162 2
163 32
164 32
165 16
166 2
167 2
168 32
169 8
170 2
171 1
172 32
173 16
174 2
175 2
176 1
177 16
178 8
179 2
180 2
181 2
182 1
183 32
184 16
185 2
186 1
187 16
188 8
189 2
190 2
191 16
192 8
193 2
194 2
195 2
196 32
197 16
198 8
199 16
200 8
201 32
202 32
203 2
DEPOT_SECTION
1
-1
EOF