SDVRP instances/custom_instances/p01_1_split0.sol
202 -4 3 2 1 44 42 43 46 45 49 47 48 -9 8 7 5 6 143 144 142 72 68 69 67 70 71 58 -21 19 18 20 161 160 159 158 157 153 155 156 154 -22 50 55 53 54 51 52 129 130 128 -39 40 41 38 37 35 32 34 33 36 167 168 169 170 -57 59 56 60 10 14 11 101 100 104 103 -64 66 65 16 15 17 30 31 29 28 162 -75 73 74 137 141 139 140 138 107 106 150 151 152 149 97 99 98 12 13 102 -80 81 24 23 77 76 79 78 175 174 172 171 173 -91 88 85 90 87 86 89 26 27 25 186 -105 122 121 123 63 62 61 163 165 166 164 -113 115 116 114 93 92 94 95 96 117 119 118 120 -124 127 125 126 112 110 111 108 109 199 198 -135 133 131 132 136 134 183 182 184 185 190 191 194 192 193 -180 181 179 178 177 176 148 147 146 145 196 197 195 -187 188 189 82 83 84 200 202 201 0 





OBJ=
1690.245
BEST_KNOWN=
0.000